x = 23;
y = 15;
c = 70;
n = 74;

p = [33  99  82  11  47  69  55  64  12  47  14  40  71  27  85  20  32  86  87  17  95  34  94  16  59  41  48  73  90  79  62  42  50  94  15  45  32  66  25  10  98  13  65  56  74  28  29  18  65  72  77  90  91  94  43  13  16  54  21  41  87  19  11  40  17  27  91  80  49  46  93  21  21  27];
w = [7  8  8  6  7  4  3  10  2  6  9  3  10  3  3  6  3  6  1  4  10  8  6  5  3  6  4  1  6  3  4  6  7  1  10  8  9  8  8  8  7  10  1  5  9  4  10  2  10  4  6  2  6  1  9  4  7  10  8  6  6  7  1  9  10  6  4  2  1  10  2  10  7  5];
s = [11  4  8  4  4  14  11  1  1  7  1  14  15  15  12  15  15  4  6  1  8  6  4  4  15  13  9  7  15  7  5  12  11  6  8  10  12  8  1  12  2  3  3  9  2  12  2  10  2  7  9  3  10  5  2  9  12  15  3  13  13  15  15  8  3  5  2  13  4  8  8  2  7  9];
